(set-info :smt-lib-version 2.6)
(set-logic UF)
(set-info :source |
Generated by: Andrew Reynolds
Generated on: 2017-04-28
Generator: Sledgehammer, converted to v2.6 by CVC4
Application: Verfication goals in Isabelle
Target solver: CVC4, Z3
Publications: "A Decision Procedure for (Co)Datatypes" by Andrew Reynolds and Jasmin Blanchette, CADE 2015.
|)
(set-info :license "https://creativecommons.org/licenses/by/4.0/")
(set-info :category "industrial")
(set-info :status unknown)


(declare-sort A$ 0)
(declare-sort Nat$ 0)
(declare-sort A_bool_fun$ 0)
(declare-sort Nat_nat_fun$ 0)
(declare-sort Nat_bool_fun$ 0)
(declare-sort Enat_bool_fun$ 0)
(declare-sort Enat_enat_fun$ 0)
(declare-sort A_llist_enat_fun$ 0)
(declare-sort Nat_nat_bool_fun_fun$ 0)
(declare-sort Enat_enat_bool_fun_fun$ 0)
(declare-sort Nat_option$ 0)
(declare-sort Enat$ 0)
(declare-fun none$ () Nat_option$)
(declare-fun the$ (Nat_option$) Nat$)
(declare-fun some$ (Nat$) Nat_option$)
(declare-fun rep_enat$ (Enat$) Nat_option$)
(declare-fun abs_enat$ (Nat_option$) Enat$)
(declare-sort A_llist$ 0)
(declare-fun lNil$ () A_llist$)
(declare-fun lhd$ (A_llist$) A$)
(declare-fun ltl$ (A_llist$) A_llist$)
(declare-fun lCons$ (A$ A_llist$) A_llist$)
(declare-fun x$ () A$)
(declare-fun na$ () Enat$)
(declare-fun xsa$ () A_llist$)
(declare-fun enat$ (Nat$) Enat$)
(declare-fun less$ (Enat$) Enat_bool_fun$)
(declare-fun size$ (Enat$) Nat$)
(declare-fun zero$ () Enat$)
(declare-fun ldrop$ (Enat$ A_llist$) A_llist$)
(declare-fun less$a (Nat$) Nat_bool_fun$)
(declare-fun minus$ (Enat$) Enat_enat_fun$)
(declare-fun times$ (Enat$) Enat_enat_fun$)
(declare-fun zero$a () Nat$)
(declare-fun ldropn$ (Nat$ A_llist$) A_llist$)
(declare-fun minus$a (Nat$) Nat_nat_fun$)
(declare-fun times$a (Nat$) Nat_nat_fun$)
(declare-fun fun_app$ (A_llist_enat_fun$ A_llist$) Enat$)
(declare-fun lappend$ (A_llist$ A_llist$) A_llist$)
(declare-fun less_eq$ (Enat$) Enat_bool_fun$)
(declare-fun lfinite$ (A_llist$) Bool)
(declare-fun llength$ () A_llist_enat_fun$)
(declare-fun lmember$ (A$ A_llist$) Bool)
(declare-fun fun_app$a (Enat_enat_fun$ Enat$) Enat$)
(declare-fun fun_app$b (Nat_nat_fun$ Nat$) Nat$)
(declare-fun fun_app$c (A_bool_fun$ A$) Bool)
(declare-fun fun_app$d (Enat_bool_fun$ Enat$) Bool)
(declare-fun fun_app$e (Nat_bool_fun$ Nat$) Bool)
(declare-fun fun_app$f (Nat_nat_bool_fun_fun$ Nat$) Nat_bool_fun$)
(declare-fun fun_app$g (Enat_enat_bool_fun_fun$ Enat$) Enat_bool_fun$)
(declare-fun infinity$ () Enat$)
(declare-fun less_eq$a (Nat$) Nat_bool_fun$)
(declare-fun the_enat$ (Enat$) Nat$)
(declare-fun size_enat$ (Enat$) Nat$)
(declare-fun pred_llist$ (A_bool_fun$ A_llist$) Bool)
(declare-fun gen_llength$ (Nat$) A_llist_enat_fun$)
(assert (not (= (fun_app$ llength$ (ldrop$ na$ (lCons$ x$ xsa$))) (ite (= na$ infinity$) zero$ (fun_app$a (minus$ (fun_app$ llength$ (lCons$ x$ xsa$))) na$)))))
(assert (lfinite$ xsa$))
(assert (forall ((?v0 Enat$)) (= (fun_app$ llength$ (ldrop$ ?v0 xsa$)) (ite (= ?v0 infinity$) zero$ (fun_app$a (minus$ (fun_app$ llength$ xsa$)) ?v0))) ))
(assert (forall ((?v0 A$) (?v1 A_llist$) (?v2 A$) (?v3 A_llist$)) (= (= (lCons$ ?v0 ?v1) (lCons$ ?v2 ?v3)) (and (= ?v0 ?v2) (= ?v1 ?v3))) ))
(assert (forall ((?v0 A_llist$)) (= (ldrop$ zero$ ?v0) ?v0) ))
(assert (forall ((?v0 Enat$)) (! (=> (not (= ?v0 infinity$)) (= (fun_app$a (minus$ ?v0) ?v0) zero$)) :pattern ((minus$ ?v0)))))
(assert (forall ((?v0 Enat$) (?v1 A_llist$)) (= (lfinite$ (ldrop$ ?v0 ?v1)) (or (lfinite$ ?v1) (= ?v0 infinity$))) ))
(assert (forall ((?v0 Enat$)) (! (= (fun_app$a (minus$ infinity$) ?v0) infinity$) :pattern ((fun_app$a (minus$ infinity$) ?v0)))))
(assert (forall ((?v0 Enat$)) (= (fun_app$a (minus$ ?v0) zero$) ?v0) ))
(assert (forall ((?v0 Enat$)) (= (fun_app$a (minus$ zero$) ?v0) zero$) ))
(assert (forall ((?v0 Nat$)) (= (fun_app$b (minus$a ?v0) zero$a) ?v0) ))
(assert (forall ((?v0 Nat$)) (! (= (fun_app$b (minus$a ?v0) ?v0) zero$a) :pattern ((minus$a ?v0)))))
(assert (forall ((?v0 Nat$)) (= (fun_app$b (minus$a zero$a) ?v0) zero$a) ))
(assert (forall ((?v0 A$) (?v1 A_llist$)) (! (= (lfinite$ (lCons$ ?v0 ?v1)) (lfinite$ ?v1)) :pattern ((lCons$ ?v0 ?v1)))))
(assert (forall ((?v0 A$) (?v1 A_llist$)) (! (= (lfinite$ (lCons$ ?v0 ?v1)) (lfinite$ ?v1)) :pattern ((lCons$ ?v0 ?v1)))))
(assert (forall ((?v0 Enat$)) (= (= zero$ ?v0) (= ?v0 zero$)) ))
(assert (forall ((?v0 Nat$)) (= (= zero$a ?v0) (= ?v0 zero$a)) ))
(assert (forall ((?v0 Nat$) (?v1 Nat$) (?v2 Nat$)) (= (fun_app$b (minus$a (fun_app$b (minus$a ?v0) ?v1)) ?v2) (fun_app$b (minus$a (fun_app$b (minus$a ?v0) ?v2)) ?v1)) ))
(assert (forall ((?v0 A_llist$) (?v1 A$)) (=> (lfinite$ ?v0) (lfinite$ (lCons$ ?v1 ?v0))) ))
(assert (not (= infinity$ zero$)))
(assert (forall ((?v0 A_llist$)) (! (=> (not (lfinite$ ?v0)) (= (fun_app$ llength$ ?v0) infinity$)) :pattern ((fun_app$ llength$ ?v0)))))
(assert (forall ((?v0 A_llist$)) (= (= (fun_app$ llength$ ?v0) infinity$) (not (lfinite$ ?v0))) ))
(assert (= (size_enat$ infinity$) zero$a))
(assert (= (size$ infinity$) zero$a))
(assert (forall ((?v0 A_bool_fun$) (?v1 A$) (?v2 A_llist$)) (! (= (pred_llist$ ?v0 (lCons$ ?v1 ?v2)) (and (fun_app$c ?v0 ?v1) (pred_llist$ ?v0 ?v2))) :pattern ((pred_llist$ ?v0 (lCons$ ?v1 ?v2))))))
(assert (forall ((?v0 Nat$)) (! (= (fun_app$a (minus$ (enat$ ?v0)) infinity$) zero$) :pattern ((enat$ ?v0)))))
(assert (forall ((?v0 Enat$)) (=> (and (=> (= ?v0 zero$) false) (=> (not (= ?v0 zero$)) false)) false) ))
(assert (forall ((?v0 Enat$) (?v1 A_llist$) (?v2 A$) (?v3 A_llist$)) (=> (= (ldrop$ ?v0 ?v1) (lCons$ ?v2 ?v3)) (fun_app$d (less$ ?v0) (fun_app$ llength$ ?v1))) ))
(assert (forall ((?v0 A$) (?v1 A$) (?v2 A_llist$)) (! (= (lmember$ ?v0 (lCons$ ?v1 ?v2)) (or (= ?v0 ?v1) (lmember$ ?v0 ?v2))) :pattern ((lmember$ ?v0 (lCons$ ?v1 ?v2))))))
(assert (forall ((?v0 Nat$) (?v1 Nat$)) (= (= (enat$ ?v0) (enat$ ?v1)) (= ?v0 ?v1)) ))
(assert (forall ((?v0 Enat$)) (= (not (= ?v0 infinity$)) (exists ((?v1 Nat$)) (= ?v0 (enat$ ?v1)) )) ))
(assert (forall ((?v0 Enat$)) (= (forall ((?v1 Nat$)) (not (= ?v0 (enat$ ?v1))) ) (= ?v0 infinity$)) ))
(assert (forall ((?v0 Enat$)) (= (fun_app$d (less$ zero$) ?v0) (not (= ?v0 zero$))) ))
(assert (forall ((?v0 Enat$)) (! (= (fun_app$d (less$ ?v0) infinity$) (not (= ?v0 infinity$))) :pattern ((less$ ?v0)))))
(assert (forall ((?v0 Enat$)) (! (= (fun_app$d (less$ infinity$) ?v0) false) :pattern ((fun_app$d (less$ infinity$) ?v0)))))
(assert (forall ((?v0 Nat$) (?v1 Nat$)) (! (= (fun_app$a (minus$ (enat$ ?v0)) (enat$ ?v1)) (enat$ (fun_app$b (minus$a ?v0) ?v1))) :pattern ((fun_app$a (minus$ (enat$ ?v0)) (enat$ ?v1))))))
(assert (forall ((?v0 Enat$)) (! (= (fun_app$a (minus$ ?v0) (enat$ zero$a)) ?v0) :pattern ((minus$ ?v0)))))
(assert (forall ((?v0 Enat$)) (! (= (fun_app$a (minus$ (enat$ zero$a)) ?v0) (enat$ zero$a)) :pattern ((fun_app$a (minus$ (enat$ zero$a)) ?v0)))))
(assert (forall ((?v0 Nat$)) (! (= (size$ (enat$ ?v0)) zero$a) :pattern ((enat$ ?v0)))))
(assert (forall ((?v0 Nat$)) (! (= (size_enat$ (enat$ ?v0)) zero$a) :pattern ((enat$ ?v0)))))
(assert (forall ((?v0 Enat_bool_fun$) (?v1 Enat$)) (=> (forall ((?v2 Enat$)) (=> (forall ((?v3 Enat$)) (=> (fun_app$d (less$ ?v3) ?v2) (fun_app$d ?v0 ?v3)) ) (fun_app$d ?v0 ?v2)) ) (fun_app$d ?v0 ?v1)) ))
(assert (forall ((?v0 Enat$) (?v1 Nat$)) (=> (fun_app$d (less$ ?v0) (enat$ ?v1)) (exists ((?v2 Nat$)) (= ?v0 (enat$ ?v2)) )) ))
(assert (forall ((?v0 Nat$)) (=> (fun_app$d (less$ infinity$) (enat$ ?v0)) false) ))
(assert (forall ((?v0 Enat$)) (=> (and (fun_app$d (less$ ?v0) infinity$) (forall ((?v1 Nat$)) (=> (= ?v0 (enat$ ?v1)) false) )) false) ))
(assert (forall ((?v0 Nat$)) (! (= (fun_app$d (less$ (enat$ ?v0)) infinity$) true) :pattern ((enat$ ?v0)))))
(assert (= zero$ (enat$ zero$a)))
(assert (forall ((?v0 Nat$)) (= (= zero$ (enat$ ?v0)) (= ?v0 zero$a)) ))
(assert (forall ((?v0 Nat$)) (= (= (enat$ ?v0) zero$) (= ?v0 zero$a)) ))
(assert (forall ((?v0 Enat$)) (=> (and (forall ((?v1 Nat$)) (=> (= ?v0 (enat$ ?v1)) false) ) (=> (= ?v0 infinity$) false)) false) ))
(assert (forall ((?v0 Enat$) (?v1 Enat$)) (=> (and (forall ((?v2 Nat$) (?v3 Nat$)) (=> (and (= ?v0 (enat$ ?v2)) (= ?v1 (enat$ ?v3))) false) ) (and (forall ((?v2 Nat$)) (=> (and (= ?v0 (enat$ ?v2)) (= ?v1 infinity$)) false) ) (and (forall ((?v2 Nat$)) (=> (and (= ?v0 infinity$) (= ?v1 (enat$ ?v2))) false) ) (=> (and (= ?v0 infinity$) (= ?v1 infinity$)) false)))) false) ))
(assert (forall ((?v0 Enat$) (?v1 Enat$) (?v2 Enat$)) (=> (and (forall ((?v3 Nat$) (?v4 Nat$) (?v5 Nat$)) (=> (and (= ?v0 (enat$ ?v3)) (and (= ?v1 (enat$ ?v4)) (= ?v2 (enat$ ?v5)))) false) ) (and (forall ((?v3 Nat$) (?v4 Nat$)) (=> (and (= ?v0 (enat$ ?v3)) (and (= ?v1 (enat$ ?v4)) (= ?v2 infinity$))) false) ) (and (forall ((?v3 Nat$) (?v4 Nat$)) (=> (and (= ?v0 (enat$ ?v3)) (and (= ?v1 infinity$) (= ?v2 (enat$ ?v4)))) false) ) (and (forall ((?v3 Nat$)) (=> (and (= ?v0 (enat$ ?v3)) (and (= ?v1 infinity$) (= ?v2 infinity$))) false) ) (and (forall ((?v3 Nat$) (?v4 Nat$)) (=> (and (= ?v0 infinity$) (and (= ?v1 (enat$ ?v3)) (= ?v2 (enat$ ?v4)))) false) ) (and (forall ((?v3 Nat$)) (=> (and (= ?v0 infinity$) (and (= ?v1 (enat$ ?v3)) (= ?v2 infinity$))) false) ) (and (forall ((?v3 Nat$)) (=> (and (= ?v0 infinity$) (and (= ?v1 infinity$) (= ?v2 (enat$ ?v3)))) false) ) (=> (and (= ?v0 infinity$) (and (= ?v1 infinity$) (= ?v2 infinity$))) false)))))))) false) ))
(assert (forall ((?v0 Nat$)) (not (= (enat$ ?v0) infinity$)) ))
(assert (forall ((?v0 Nat$)) (not (= infinity$ (enat$ ?v0))) ))
(assert (forall ((?v0 Enat$)) (not (fun_app$d (less$ ?v0) zero$)) ))
(assert (forall ((?v0 A_llist$)) (= (lfinite$ ?v0) (exists ((?v1 Nat$)) (= (fun_app$ llength$ ?v0) (enat$ ?v1)) )) ))
(assert (forall ((?v0 A_llist$) (?v1 Nat$)) (=> (= (fun_app$ llength$ ?v0) (enat$ ?v1)) (lfinite$ ?v0)) ))
(assert (forall ((?v0 A_llist$)) (=> (lfinite$ ?v0) (exists ((?v1 Nat$)) (= (fun_app$ llength$ ?v0) (enat$ ?v1)) )) ))
(assert (forall ((?v0 Nat$)) (! (= (fun_app$b (minus$a ?v0) ?v0) zero$a) :pattern ((minus$a ?v0)))))
(assert (forall ((?v0 Nat$)) (! (= (fun_app$b (minus$a zero$a) ?v0) zero$a) :pattern ((fun_app$b (minus$a zero$a) ?v0)))))
(assert (not (fun_app$e (less$a zero$a) zero$a)))
(assert (= (the_enat$ zero$) zero$a))
(assert (= llength$ (gen_llength$ zero$a)))
(assert (forall ((?v0 Nat$)) (! (= (fun_app$a (times$ (enat$ ?v0)) infinity$) (ite (= ?v0 zero$a) zero$ infinity$)) :pattern ((enat$ ?v0)))))
(assert (forall ((?v0 Nat$)) (! (= (fun_app$a (times$ infinity$) (enat$ ?v0)) (ite (= ?v0 zero$a) zero$ infinity$)) :pattern ((enat$ ?v0)))))
(assert (forall ((?v0 Nat$) (?v1 A_llist$) (?v2 A$) (?v3 A_llist$)) (=> (= (ldropn$ ?v0 ?v1) (lCons$ ?v2 ?v3)) (fun_app$d (less$ (enat$ ?v0)) (fun_app$ llength$ ?v1))) ))
(assert (forall ((?v0 Nat$) (?v1 A_llist$)) (= (fun_app$ llength$ (ldropn$ ?v0 ?v1)) (fun_app$a (minus$ (fun_app$ llength$ ?v1)) (enat$ ?v0))) ))
(assert (forall ((?v0 Nat$)) (! (= (fun_app$e (less$a ?v0) zero$a) false) :pattern ((less$a ?v0)))))
(assert (forall ((?v0 Nat$)) (= (not (fun_app$e (less$a zero$a) ?v0)) (= ?v0 zero$a)) ))
(assert (forall ((?v0 Nat$)) (= (not (= ?v0 zero$a)) (fun_app$e (less$a zero$a) ?v0)) ))
(assert (forall ((?v0 Nat$) (?v1 Nat$)) (= (fun_app$e (less$a zero$a) (fun_app$b (minus$a ?v0) ?v1)) (fun_app$e (less$a ?v1) ?v0)) ))
(assert (forall ((?v0 A_llist$)) (! (= (ldropn$ zero$a ?v0) ?v0) :pattern ((ldropn$ zero$a ?v0)))))
(assert (forall ((?v0 Nat$) (?v1 Nat$)) (! (= (fun_app$d (less$ (enat$ ?v0)) (enat$ ?v1)) (fun_app$e (less$a ?v0) ?v1)) :pattern ((fun_app$d (less$ (enat$ ?v0)) (enat$ ?v1))))))
(assert (forall ((?v0 Nat$) (?v1 A_llist$)) (= (lfinite$ (ldropn$ ?v0 ?v1)) (lfinite$ ?v1)) ))
(assert (forall ((?v0 Enat$) (?v1 Enat$)) (= (= (fun_app$a (times$ ?v0) ?v1) zero$) (or (= ?v0 zero$) (= ?v1 zero$))) ))
(assert (= (fun_app$a (times$ infinity$) infinity$) infinity$))
(assert (forall ((?v0 Nat$) (?v1 Nat$) (?v2 Nat$)) (= (fun_app$b (minus$a (fun_app$b (minus$a ?v0) ?v1)) ?v2) (fun_app$b (minus$a (fun_app$b (minus$a ?v0) ?v2)) ?v1)) ))
(assert (forall ((?v0 Nat$)) (=> (=> (= ?v0 zero$a) false) (fun_app$e (less$a zero$a) ?v0)) ))
(assert (forall ((?v0 Nat$) (?v1 Nat$) (?v2 Nat$)) (=> (and (fun_app$e (less$a ?v0) ?v1) (fun_app$e (less$a ?v0) ?v2)) (fun_app$e (less$a (fun_app$b (minus$a ?v2) ?v1)) (fun_app$b (minus$a ?v2) ?v0))) ))
(assert (forall ((?v0 Nat$) (?v1 Nat$) (?v2 Nat$)) (=> (fun_app$e (less$a ?v0) ?v1) (fun_app$e (less$a (fun_app$b (minus$a ?v0) ?v2)) ?v1)) ))
(assert (forall ((?v0 Nat$) (?v1 Nat$)) (=> (fun_app$e (less$a ?v0) ?v1) (not (= ?v1 zero$a))) ))
(assert (forall ((?v0 Nat$)) (=> (fun_app$e (less$a ?v0) zero$a) false) ))
(assert (forall ((?v0 Nat$) (?v1 Nat$)) (=> (and (fun_app$e (less$a zero$a) ?v0) (fun_app$e (less$a zero$a) ?v1)) (fun_app$e (less$a (fun_app$b (minus$a ?v1) ?v0)) ?v1)) ))
(assert (forall ((?v0 Nat_bool_fun$) (?v1 Nat$)) (=> (and (fun_app$e ?v0 zero$a) (forall ((?v2 Nat$)) (=> (and (fun_app$e (less$a zero$a) ?v2) (not (fun_app$e ?v0 ?v2))) (exists ((?v3 Nat$)) (and (fun_app$e (less$a ?v3) ?v2) (not (fun_app$e ?v0 ?v3))) )) )) (fun_app$e ?v0 ?v1)) ))
(assert (forall ((?v0 Nat$)) (not (fun_app$e (less$a ?v0) zero$a)) ))
(assert (forall ((?v0 Enat$) (?v1 Enat$)) (= (fun_app$a (times$ ?v0) ?v1) (fun_app$a (times$ ?v1) ?v0)) ))
(assert (forall ((?v0 Nat$) (?v1 Nat$)) (= (fun_app$b (times$a ?v0) ?v1) (fun_app$b (times$a ?v1) ?v0)) ))
(assert (forall ((?v0 Enat$) (?v1 Enat$) (?v2 Enat$)) (= (fun_app$a (times$ ?v0) (fun_app$a (times$ ?v1) ?v2)) (fun_app$a (times$ ?v1) (fun_app$a (times$ ?v0) ?v2))) ))
(assert (forall ((?v0 Nat$) (?v1 Nat$) (?v2 Nat$)) (= (fun_app$b (times$a ?v0) (fun_app$b (times$a ?v1) ?v2)) (fun_app$b (times$a ?v1) (fun_app$b (times$a ?v0) ?v2))) ))
(assert (forall ((?v0 Enat$) (?v1 Enat$) (?v2 Enat$)) (= (fun_app$a (times$ (fun_app$a (times$ ?v0) ?v1)) ?v2) (fun_app$a (times$ ?v0) (fun_app$a (times$ ?v1) ?v2))) ))
(assert (forall ((?v0 Nat$) (?v1 Nat$) (?v2 Nat$)) (= (fun_app$b (times$a (fun_app$b (times$a ?v0) ?v1)) ?v2) (fun_app$b (times$a ?v0) (fun_app$b (times$a ?v1) ?v2))) ))
(assert (forall ((?v0 Enat$) (?v1 Enat$) (?v2 Enat$)) (= (fun_app$a (times$ (fun_app$a (times$ ?v0) ?v1)) ?v2) (fun_app$a (times$ ?v0) (fun_app$a (times$ ?v1) ?v2))) ))
(assert (forall ((?v0 Nat$) (?v1 Nat$) (?v2 Nat$)) (= (fun_app$b (times$a (fun_app$b (times$a ?v0) ?v1)) ?v2) (fun_app$b (times$a ?v0) (fun_app$b (times$a ?v1) ?v2))) ))
(assert (forall ((?v0 Enat$) (?v1 Enat$)) (= (= (fun_app$a (times$ ?v0) ?v1) infinity$) (or (and (= ?v0 infinity$) (not (= ?v1 zero$))) (and (= ?v1 infinity$) (not (= ?v0 zero$))))) ))
(assert (forall ((?v0 Enat$) (?v1 Enat$)) (= (fun_app$d (less$ zero$) (fun_app$a (times$ ?v0) ?v1)) (and (fun_app$d (less$ zero$) ?v0) (fun_app$d (less$ zero$) ?v1))) ))
(assert (forall ((?v0 Enat$) (?v1 Nat$)) (=> (and (fun_app$d (less$ ?v0) (enat$ ?v1)) (forall ((?v2 Nat$)) (=> (and (= ?v0 (enat$ ?v2)) (fun_app$e (less$a ?v2) ?v1)) false) )) false) ))
(assert (forall ((?v0 Nat$)) (! (= (the_enat$ (enat$ ?v0)) ?v0) :pattern ((enat$ ?v0)))))
(assert (forall ((?v0 Nat$) (?v1 A_llist$)) (! (= (ldrop$ (enat$ ?v0) ?v1) (ldropn$ ?v0 ?v1)) :pattern ((ldrop$ (enat$ ?v0) ?v1)))))
(assert (forall ((?v0 Nat$) (?v1 Nat$)) (=> (and (= (fun_app$b (minus$a ?v0) ?v1) zero$a) (= (fun_app$b (minus$a ?v1) ?v0) zero$a)) (= ?v0 ?v1)) ))
(assert (forall ((?v0 Nat$)) (=> (and (=> (= ?v0 zero$a) false) (=> (not (= ?v0 zero$a)) false)) false) ))
(assert (forall ((?v0 Nat$)) (! (= (fun_app$b (minus$a ?v0) zero$a) ?v0) :pattern ((minus$a ?v0)))))
(assert (forall ((?v0 Enat$)) (! (=> (fun_app$d (less$ zero$) ?v0) (= (fun_app$a (times$ infinity$) ?v0) infinity$)) :pattern ((fun_app$a (times$ infinity$) ?v0)))))
(assert (forall ((?v0 Enat$)) (! (=> (fun_app$d (less$ zero$) ?v0) (= (fun_app$a (times$ ?v0) infinity$) infinity$)) :pattern ((times$ ?v0)))))
(assert (forall ((?v0 Enat$)) (=> (not (= ?v0 infinity$)) (= (enat$ (the_enat$ ?v0)) ?v0)) ))
(assert (forall ((?v0 Enat$)) (= (fun_app$a (times$ zero$) ?v0) zero$) ))
(assert (forall ((?v0 Nat$)) (= (fun_app$b (times$a zero$a) ?v0) zero$a) ))
(assert (forall ((?v0 Enat$)) (= (fun_app$a (times$ ?v0) zero$) zero$) ))
(assert (forall ((?v0 Nat$)) (= (fun_app$b (times$a ?v0) zero$a) zero$a) ))
(assert (forall ((?v0 Nat$) (?v1 Nat$)) (= (= (fun_app$b (times$a ?v0) ?v1) zero$a) (or (= ?v0 zero$a) (= ?v1 zero$a))) ))
(assert (forall ((?v0 Nat$) (?v1 Nat$) (?v2 Nat$)) (= (= (fun_app$b (times$a ?v0) ?v1) (fun_app$b (times$a ?v0) ?v2)) (or (= ?v0 zero$a) (= ?v1 ?v2))) ))
(assert (forall ((?v0 Nat$) (?v1 Nat$) (?v2 Nat$)) (= (= (fun_app$b (times$a ?v0) ?v1) (fun_app$b (times$a ?v2) ?v1)) (or (= ?v1 zero$a) (= ?v0 ?v2))) ))
(assert (forall ((?v0 Nat$) (?v1 Nat$) (?v2 Nat$)) (= (= (fun_app$b (times$a ?v0) ?v1) (fun_app$b (times$a ?v2) ?v1)) (or (= ?v0 ?v2) (= ?v1 zero$a))) ))
(assert (forall ((?v0 Nat$) (?v1 Nat$) (?v2 Nat$)) (= (= (fun_app$b (times$a ?v0) ?v1) (fun_app$b (times$a ?v0) ?v2)) (or (= ?v1 ?v2) (= ?v0 zero$a))) ))
(assert (forall ((?v0 Nat$) (?v1 Nat$)) (= (= (fun_app$b (times$a ?v0) ?v1) zero$a) (or (= ?v0 zero$a) (= ?v1 zero$a))) ))
(assert (forall ((?v0 Nat$)) (! (= (fun_app$b (times$a ?v0) zero$a) zero$a) :pattern ((times$a ?v0)))))
(assert (forall ((?v0 Nat$) (?v1 Nat$)) (= (fun_app$e (less$a zero$a) (fun_app$b (times$a ?v0) ?v1)) (and (fun_app$e (less$a zero$a) ?v0) (fun_app$e (less$a zero$a) ?v1))) ))
(assert (forall ((?v0 Nat$) (?v1 Nat$) (?v2 Nat$)) (= (fun_app$e (less$a (fun_app$b (times$a ?v0) ?v1)) (fun_app$b (times$a ?v2) ?v1)) (and (fun_app$e (less$a zero$a) ?v1) (fun_app$e (less$a ?v0) ?v2))) ))
(assert (forall ((?v0 Nat$) (?v1 Nat$)) (! (= (fun_app$a (times$ (enat$ ?v0)) (enat$ ?v1)) (enat$ (fun_app$b (times$a ?v0) ?v1))) :pattern ((fun_app$a (times$ (enat$ ?v0)) (enat$ ?v1))))))
(assert (forall ((?v0 Nat$)) (not (fun_app$e (less$a ?v0) ?v0)) ))
(assert (forall ((?v0 Nat$) (?v1 Nat$)) (=> (and (not (= ?v0 ?v1)) (and (=> (fun_app$e (less$a ?v0) ?v1) false) (=> (fun_app$e (less$a ?v1) ?v0) false))) false) ))
(assert (forall ((?v0 Nat$)) (=> (fun_app$e (less$a ?v0) ?v0) false) ))
(assert (forall ((?v0 Nat$) (?v1 Nat$)) (=> (fun_app$e (less$a ?v0) ?v1) (not (= ?v1 ?v0))) ))
(assert (forall ((?v0 Nat$) (?v1 Nat$)) (=> (fun_app$e (less$a ?v0) ?v1) (not (= ?v0 ?v1))) ))
(assert (forall ((?v0 Nat_bool_fun$) (?v1 Nat$)) (=> (forall ((?v2 Nat$)) (=> (forall ((?v3 Nat$)) (=> (fun_app$e (less$a ?v3) ?v2) (fun_app$e ?v0 ?v3)) ) (fun_app$e ?v0 ?v2)) ) (fun_app$e ?v0 ?v1)) ))
(assert (forall ((?v0 Nat_bool_fun$) (?v1 Nat$)) (=> (forall ((?v2 Nat$)) (=> (not (fun_app$e ?v0 ?v2)) (exists ((?v3 Nat$)) (and (fun_app$e (less$a ?v3) ?v2) (not (fun_app$e ?v0 ?v3))) )) ) (fun_app$e ?v0 ?v1)) ))
(assert (forall ((?v0 Nat$) (?v1 Nat$) (?v2 Nat_nat_bool_fun_fun$)) (=> (and (=> (fun_app$e (less$a ?v0) ?v1) (fun_app$e (fun_app$f ?v2 ?v1) ?v0)) (and (=> (= ?v0 ?v1) (fun_app$e (fun_app$f ?v2 ?v1) ?v0)) (=> (fun_app$e (less$a ?v1) ?v0) (fun_app$e (fun_app$f ?v2 ?v1) ?v0)))) (fun_app$e (fun_app$f ?v2 ?v1) ?v0)) ))
(assert (forall ((?v0 Nat$) (?v1 Nat$)) (= (not (= ?v0 ?v1)) (or (fun_app$e (less$a ?v0) ?v1) (fun_app$e (less$a ?v1) ?v0))) ))
(assert (forall ((?v0 Nat$) (?v1 Nat$) (?v2 Nat$)) (=> (and (fun_app$e (less$a ?v0) ?v1) (fun_app$e (less$a zero$a) ?v2)) (fun_app$e (less$a (fun_app$b (times$a ?v0) ?v2)) (fun_app$b (times$a ?v1) ?v2))) ))
(assert (forall ((?v0 Nat$) (?v1 Nat$) (?v2 Nat$)) (=> (and (fun_app$e (less$a ?v0) ?v1) (fun_app$e (less$a zero$a) ?v2)) (fun_app$e (less$a (fun_app$b (times$a ?v2) ?v0)) (fun_app$b (times$a ?v2) ?v1))) ))
(assert (forall ((?v0 Nat$)) (! (= (fun_app$b (times$a zero$a) ?v0) zero$a) :pattern ((fun_app$b (times$a zero$a) ?v0)))))
(assert (forall ((?v0 Nat$) (?v1 Nat$) (?v2 Nat$)) (= (fun_app$b (times$a ?v0) (fun_app$b (minus$a ?v1) ?v2)) (fun_app$b (minus$a (fun_app$b (times$a ?v0) ?v1)) (fun_app$b (times$a ?v0) ?v2))) ))
(assert (forall ((?v0 Nat$) (?v1 Nat$) (?v2 Nat$)) (= (fun_app$b (times$a (fun_app$b (minus$a ?v0) ?v1)) ?v2) (fun_app$b (minus$a (fun_app$b (times$a ?v0) ?v2)) (fun_app$b (times$a ?v1) ?v2))) ))
(assert (forall ((?v0 Nat$) (?v1 Nat$) (?v2 Nat$)) (=> (not (= ?v0 zero$a)) (= (= (fun_app$b (times$a ?v0) ?v1) (fun_app$b (times$a ?v0) ?v2)) (= ?v1 ?v2))) ))
(assert (forall ((?v0 Nat$) (?v1 Nat$) (?v2 Nat$)) (=> (not (= ?v0 zero$a)) (= (= (fun_app$b (times$a ?v1) ?v0) (fun_app$b (times$a ?v2) ?v0)) (= ?v1 ?v2))) ))
(assert (forall ((?v0 Nat$) (?v1 Nat$)) (=> (and (not (= ?v0 zero$a)) (not (= ?v1 zero$a))) (not (= (fun_app$b (times$a ?v0) ?v1) zero$a))) ))
(assert (forall ((?v0 Enat$) (?v1 Enat$)) (=> (not (= (fun_app$a (times$ ?v0) ?v1) zero$)) (and (not (= ?v0 zero$)) (not (= ?v1 zero$)))) ))
(assert (forall ((?v0 Nat$) (?v1 Nat$)) (=> (not (= (fun_app$b (times$a ?v0) ?v1) zero$a)) (and (not (= ?v0 zero$a)) (not (= ?v1 zero$a)))) ))
(assert (forall ((?v0 Nat$) (?v1 Nat$)) (=> (= (fun_app$b (times$a ?v0) ?v1) zero$a) (or (= ?v0 zero$a) (= ?v1 zero$a))) ))
(assert (forall ((?v0 Nat$) (?v1 Nat$) (?v2 Nat$)) (= (fun_app$b (times$a ?v0) (fun_app$b (minus$a ?v1) ?v2)) (fun_app$b (minus$a (fun_app$b (times$a ?v0) ?v1)) (fun_app$b (times$a ?v0) ?v2))) ))
(assert (forall ((?v0 Nat$) (?v1 Nat$) (?v2 Nat$)) (= (fun_app$b (times$a (fun_app$b (minus$a ?v0) ?v1)) ?v2) (fun_app$b (minus$a (fun_app$b (times$a ?v0) ?v2)) (fun_app$b (times$a ?v1) ?v2))) ))
(assert (forall ((?v0 Nat$) (?v1 Nat$) (?v2 Nat$)) (=> (and (fun_app$e (less$a ?v0) ?v1) (fun_app$e (less$a zero$a) ?v2)) (fun_app$e (less$a (fun_app$b (times$a ?v2) ?v0)) (fun_app$b (times$a ?v2) ?v1))) ))
(assert (forall ((?v0 Nat$) (?v1 Nat$) (?v2 Nat$)) (=> (and (fun_app$e (less$a ?v0) ?v1) (fun_app$e (less$a zero$a) ?v2)) (fun_app$e (less$a (fun_app$b (times$a ?v0) ?v2)) (fun_app$b (times$a ?v1) ?v2))) ))
(assert (forall ((?v0 Nat$) (?v1 Nat$) (?v2 Nat$)) (=> (and (fun_app$e (less$a ?v0) ?v1) (fun_app$e (less$a zero$a) ?v2)) (fun_app$e (less$a (fun_app$b (times$a ?v2) ?v0)) (fun_app$b (times$a ?v2) ?v1))) ))
(assert (forall ((?v0 Nat$) (?v1 Nat$)) (=> (and (fun_app$e (less$a ?v0) zero$a) (fun_app$e (less$a zero$a) ?v1)) (fun_app$e (less$a (fun_app$b (times$a ?v0) ?v1)) zero$a)) ))
(assert (forall ((?v0 Nat$) (?v1 Nat$)) (=> (and (fun_app$e (less$a zero$a) (fun_app$b (times$a ?v0) ?v1)) (fun_app$e (less$a zero$a) ?v1)) (fun_app$e (less$a zero$a) ?v0)) ))
(assert (forall ((?v0 Nat$) (?v1 Nat$)) (=> (and (fun_app$e (less$a zero$a) (fun_app$b (times$a ?v0) ?v1)) (fun_app$e (less$a zero$a) ?v0)) (fun_app$e (less$a zero$a) ?v1)) ))
(assert (forall ((?v0 Nat$) (?v1 Nat$)) (=> (and (fun_app$e (less$a zero$a) ?v0) (fun_app$e (less$a ?v1) zero$a)) (fun_app$e (less$a (fun_app$b (times$a ?v1) ?v0)) zero$a)) ))
(assert (forall ((?v0 Nat$) (?v1 Nat$)) (=> (and (fun_app$e (less$a zero$a) ?v0) (fun_app$e (less$a ?v1) zero$a)) (fun_app$e (less$a (fun_app$b (times$a ?v0) ?v1)) zero$a)) ))
(assert (forall ((?v0 Nat$) (?v1 Nat$)) (=> (and (fun_app$e (less$a zero$a) ?v0) (fun_app$e (less$a zero$a) ?v1)) (fun_app$e (less$a zero$a) (fun_app$b (times$a ?v0) ?v1))) ))
(assert (forall ((?v0 Nat$) (?v1 Nat$) (?v2 Nat$)) (= (fun_app$e (less$a (fun_app$b (times$a ?v0) ?v1)) (fun_app$b (times$a ?v0) ?v2)) (and (fun_app$e (less$a zero$a) ?v0) (fun_app$e (less$a ?v1) ?v2))) ))
(assert (forall ((?v0 Nat$) (?v1 Nat$) (?v2 Nat$)) (=> (fun_app$e (less$a zero$a) ?v0) (= (= (fun_app$b (times$a ?v0) ?v1) (fun_app$b (times$a ?v0) ?v2)) (= ?v1 ?v2))) ))
(assert (forall ((?v0 Nat$) (?v1 Nat$) (?v2 Nat$)) (= (= (fun_app$b (times$a ?v0) ?v1) (fun_app$b (times$a ?v0) ?v2)) (or (= ?v0 zero$a) (= ?v1 ?v2))) ))
(assert (forall ((?v0 Nat$) (?v1 Nat$) (?v2 Nat$)) (=> (fun_app$e (less$a zero$a) ?v0) (= (fun_app$e (less$a (fun_app$b (times$a ?v0) ?v1)) (fun_app$b (times$a ?v0) ?v2)) (fun_app$e (less$a ?v1) ?v2))) ))
(assert (forall ((?v0 Nat$) (?v1 A_llist$) (?v2 A_llist$)) (= (ldropn$ ?v0 (lappend$ ?v1 ?v2)) (ite (fun_app$d (less$ (enat$ ?v0)) (fun_app$ llength$ ?v1)) (lappend$ (ldropn$ ?v0 ?v1) ?v2) (ldropn$ (fun_app$b (minus$a ?v0) (the_enat$ (fun_app$ llength$ ?v1))) ?v2))) ))
(assert (forall ((?v0 A$) (?v1 A_llist$) (?v2 A_llist$)) (! (= (lappend$ (lCons$ ?v0 ?v1) ?v2) (lCons$ ?v0 (lappend$ ?v1 ?v2))) :pattern ((lappend$ (lCons$ ?v0 ?v1) ?v2)))))
(assert (forall ((?v0 A_llist$) (?v1 A_llist$)) (= (lfinite$ (lappend$ ?v0 ?v1)) (and (lfinite$ ?v0) (lfinite$ ?v1))) ))
(assert (forall ((?v0 A_llist$) (?v1 A_llist$) (?v2 A_llist$)) (= (lappend$ (lappend$ ?v0 ?v1) ?v2) (lappend$ ?v0 (lappend$ ?v1 ?v2))) ))
(assert (forall ((?v0 A_llist$) (?v1 A_llist$)) (! (=> (not (lfinite$ ?v0)) (= (lappend$ ?v0 ?v1) ?v0)) :pattern ((lappend$ ?v0 ?v1)))))
(assert (forall ((?v0 Enat$)) (exists ((?v1 Enat$)) (forall ((?v2 Enat$)) (=> (fun_app$d (less$ ?v2) ?v1) (= (fun_app$d (less$ ?v0) ?v2) false)) ) ) ))
(assert (forall ((?v0 Nat$)) (exists ((?v1 Nat$)) (forall ((?v2 Nat$)) (=> (fun_app$e (less$a ?v2) ?v1) (= (fun_app$e (less$a ?v0) ?v2) false)) ) ) ))
(assert (forall ((?v0 Enat$)) (exists ((?v1 Enat$)) (forall ((?v2 Enat$)) (=> (fun_app$d (less$ ?v2) ?v1) (= (fun_app$d (less$ ?v2) ?v0) true)) ) ) ))
(assert (forall ((?v0 Nat$)) (exists ((?v1 Nat$)) (forall ((?v2 Nat$)) (=> (fun_app$e (less$a ?v2) ?v1) (= (fun_app$e (less$a ?v2) ?v0) true)) ) ) ))
(assert (forall ((?v0 Enat$)) (exists ((?v1 Enat$)) (forall ((?v2 Enat$)) (=> (fun_app$d (less$ ?v2) ?v1) (= (not (= ?v2 ?v0)) true)) ) ) ))
(assert (forall ((?v0 Nat$)) (exists ((?v1 Nat$)) (forall ((?v2 Nat$)) (=> (fun_app$e (less$a ?v2) ?v1) (= (not (= ?v2 ?v0)) true)) ) ) ))
(assert (forall ((?v0 Enat$)) (exists ((?v1 Enat$)) (forall ((?v2 Enat$)) (=> (fun_app$d (less$ ?v2) ?v1) (= (= ?v2 ?v0) false)) ) ) ))
(assert (forall ((?v0 Nat$)) (exists ((?v1 Nat$)) (forall ((?v2 Nat$)) (=> (fun_app$e (less$a ?v2) ?v1) (= (= ?v2 ?v0) false)) ) ) ))
(assert (forall ((?v0 Enat$)) (exists ((?v1 Enat$)) (forall ((?v2 Enat$)) (=> (fun_app$d (less$ ?v1) ?v2) (= (fun_app$d (less$ ?v0) ?v2) true)) ) ) ))
(assert (forall ((?v0 Nat$)) (exists ((?v1 Nat$)) (forall ((?v2 Nat$)) (=> (fun_app$e (less$a ?v1) ?v2) (= (fun_app$e (less$a ?v0) ?v2) true)) ) ) ))
(assert (forall ((?v0 Enat$)) (exists ((?v1 Enat$)) (forall ((?v2 Enat$)) (=> (fun_app$d (less$ ?v1) ?v2) (= (fun_app$d (less$ ?v2) ?v0) false)) ) ) ))
(assert (forall ((?v0 Nat$)) (exists ((?v1 Nat$)) (forall ((?v2 Nat$)) (=> (fun_app$e (less$a ?v1) ?v2) (= (fun_app$e (less$a ?v2) ?v0) false)) ) ) ))
(assert (forall ((?v0 Enat$)) (exists ((?v1 Enat$)) (forall ((?v2 Enat$)) (=> (fun_app$d (less$ ?v1) ?v2) (= (not (= ?v2 ?v0)) true)) ) ) ))
(assert (forall ((?v0 Nat$)) (exists ((?v1 Nat$)) (forall ((?v2 Nat$)) (=> (fun_app$e (less$a ?v1) ?v2) (= (not (= ?v2 ?v0)) true)) ) ) ))
(assert (forall ((?v0 Enat$)) (exists ((?v1 Enat$)) (forall ((?v2 Enat$)) (=> (fun_app$d (less$ ?v1) ?v2) (= (= ?v2 ?v0) false)) ) ) ))
(assert (forall ((?v0 Nat$)) (exists ((?v1 Nat$)) (forall ((?v2 Nat$)) (=> (fun_app$e (less$a ?v1) ?v2) (= (= ?v2 ?v0) false)) ) ) ))
(assert (forall ((?v0 Enat_bool_fun$) (?v1 Enat_bool_fun$) (?v2 Enat_bool_fun$) (?v3 Enat_bool_fun$)) (=> (and (exists ((?v4 Enat$)) (forall ((?v5 Enat$)) (=> (fun_app$d (less$ ?v5) ?v4) (= (fun_app$d ?v0 ?v5) (fun_app$d ?v1 ?v5))) ) ) (exists ((?v4 Enat$)) (forall ((?v5 Enat$)) (=> (fun_app$d (less$ ?v5) ?v4) (= (fun_app$d ?v2 ?v5) (fun_app$d ?v3 ?v5))) ) )) (exists ((?v4 Enat$)) (forall ((?v5 Enat$)) (=> (fun_app$d (less$ ?v5) ?v4) (= (or (fun_app$d ?v0 ?v5) (fun_app$d ?v2 ?v5)) (or (fun_app$d ?v1 ?v5) (fun_app$d ?v3 ?v5)))) ) )) ))
(assert (forall ((?v0 Nat_bool_fun$) (?v1 Nat_bool_fun$) (?v2 Nat_bool_fun$) (?v3 Nat_bool_fun$)) (=> (and (exists ((?v4 Nat$)) (forall ((?v5 Nat$)) (=> (fun_app$e (less$a ?v5) ?v4) (= (fun_app$e ?v0 ?v5) (fun_app$e ?v1 ?v5))) ) ) (exists ((?v4 Nat$)) (forall ((?v5 Nat$)) (=> (fun_app$e (less$a ?v5) ?v4) (= (fun_app$e ?v2 ?v5) (fun_app$e ?v3 ?v5))) ) )) (exists ((?v4 Nat$)) (forall ((?v5 Nat$)) (=> (fun_app$e (less$a ?v5) ?v4) (= (or (fun_app$e ?v0 ?v5) (fun_app$e ?v2 ?v5)) (or (fun_app$e ?v1 ?v5) (fun_app$e ?v3 ?v5)))) ) )) ))
(assert (forall ((?v0 Enat_bool_fun$) (?v1 Enat_bool_fun$) (?v2 Enat_bool_fun$) (?v3 Enat_bool_fun$)) (=> (and (exists ((?v4 Enat$)) (forall ((?v5 Enat$)) (=> (fun_app$d (less$ ?v5) ?v4) (= (fun_app$d ?v0 ?v5) (fun_app$d ?v1 ?v5))) ) ) (exists ((?v4 Enat$)) (forall ((?v5 Enat$)) (=> (fun_app$d (less$ ?v5) ?v4) (= (fun_app$d ?v2 ?v5) (fun_app$d ?v3 ?v5))) ) )) (exists ((?v4 Enat$)) (forall ((?v5 Enat$)) (=> (fun_app$d (less$ ?v5) ?v4) (= (and (fun_app$d ?v0 ?v5) (fun_app$d ?v2 ?v5)) (and (fun_app$d ?v1 ?v5) (fun_app$d ?v3 ?v5)))) ) )) ))
(assert (forall ((?v0 Nat_bool_fun$) (?v1 Nat_bool_fun$) (?v2 Nat_bool_fun$) (?v3 Nat_bool_fun$)) (=> (and (exists ((?v4 Nat$)) (forall ((?v5 Nat$)) (=> (fun_app$e (less$a ?v5) ?v4) (= (fun_app$e ?v0 ?v5) (fun_app$e ?v1 ?v5))) ) ) (exists ((?v4 Nat$)) (forall ((?v5 Nat$)) (=> (fun_app$e (less$a ?v5) ?v4) (= (fun_app$e ?v2 ?v5) (fun_app$e ?v3 ?v5))) ) )) (exists ((?v4 Nat$)) (forall ((?v5 Nat$)) (=> (fun_app$e (less$a ?v5) ?v4) (= (and (fun_app$e ?v0 ?v5) (fun_app$e ?v2 ?v5)) (and (fun_app$e ?v1 ?v5) (fun_app$e ?v3 ?v5)))) ) )) ))
(assert (forall ((?v0 Enat_bool_fun$) (?v1 Enat_bool_fun$) (?v2 Enat_bool_fun$) (?v3 Enat_bool_fun$)) (=> (and (exists ((?v4 Enat$)) (forall ((?v5 Enat$)) (=> (fun_app$d (less$ ?v4) ?v5) (= (fun_app$d ?v0 ?v5) (fun_app$d ?v1 ?v5))) ) ) (exists ((?v4 Enat$)) (forall ((?v5 Enat$)) (=> (fun_app$d (less$ ?v4) ?v5) (= (fun_app$d ?v2 ?v5) (fun_app$d ?v3 ?v5))) ) )) (exists ((?v4 Enat$)) (forall ((?v5 Enat$)) (=> (fun_app$d (less$ ?v4) ?v5) (= (or (fun_app$d ?v0 ?v5) (fun_app$d ?v2 ?v5)) (or (fun_app$d ?v1 ?v5) (fun_app$d ?v3 ?v5)))) ) )) ))
(assert (forall ((?v0 Nat_bool_fun$) (?v1 Nat_bool_fun$) (?v2 Nat_bool_fun$) (?v3 Nat_bool_fun$)) (=> (and (exists ((?v4 Nat$)) (forall ((?v5 Nat$)) (=> (fun_app$e (less$a ?v4) ?v5) (= (fun_app$e ?v0 ?v5) (fun_app$e ?v1 ?v5))) ) ) (exists ((?v4 Nat$)) (forall ((?v5 Nat$)) (=> (fun_app$e (less$a ?v4) ?v5) (= (fun_app$e ?v2 ?v5) (fun_app$e ?v3 ?v5))) ) )) (exists ((?v4 Nat$)) (forall ((?v5 Nat$)) (=> (fun_app$e (less$a ?v4) ?v5) (= (or (fun_app$e ?v0 ?v5) (fun_app$e ?v2 ?v5)) (or (fun_app$e ?v1 ?v5) (fun_app$e ?v3 ?v5)))) ) )) ))
(assert (forall ((?v0 Enat_bool_fun$) (?v1 Enat_bool_fun$) (?v2 Enat_bool_fun$) (?v3 Enat_bool_fun$)) (=> (and (exists ((?v4 Enat$)) (forall ((?v5 Enat$)) (=> (fun_app$d (less$ ?v4) ?v5) (= (fun_app$d ?v0 ?v5) (fun_app$d ?v1 ?v5))) ) ) (exists ((?v4 Enat$)) (forall ((?v5 Enat$)) (=> (fun_app$d (less$ ?v4) ?v5) (= (fun_app$d ?v2 ?v5) (fun_app$d ?v3 ?v5))) ) )) (exists ((?v4 Enat$)) (forall ((?v5 Enat$)) (=> (fun_app$d (less$ ?v4) ?v5) (= (and (fun_app$d ?v0 ?v5) (fun_app$d ?v2 ?v5)) (and (fun_app$d ?v1 ?v5) (fun_app$d ?v3 ?v5)))) ) )) ))
(assert (forall ((?v0 Nat_bool_fun$) (?v1 Nat_bool_fun$) (?v2 Nat_bool_fun$) (?v3 Nat_bool_fun$)) (=> (and (exists ((?v4 Nat$)) (forall ((?v5 Nat$)) (=> (fun_app$e (less$a ?v4) ?v5) (= (fun_app$e ?v0 ?v5) (fun_app$e ?v1 ?v5))) ) ) (exists ((?v4 Nat$)) (forall ((?v5 Nat$)) (=> (fun_app$e (less$a ?v4) ?v5) (= (fun_app$e ?v2 ?v5) (fun_app$e ?v3 ?v5))) ) )) (exists ((?v4 Nat$)) (forall ((?v5 Nat$)) (=> (fun_app$e (less$a ?v4) ?v5) (= (and (fun_app$e ?v0 ?v5) (fun_app$e ?v2 ?v5)) (and (fun_app$e ?v1 ?v5) (fun_app$e ?v3 ?v5)))) ) )) ))
(assert (forall ((?v0 Enat$) (?v1 A_llist$) (?v2 A_llist$)) (= (ldrop$ ?v0 (lappend$ ?v1 ?v2)) (ite (fun_app$d (less$ ?v0) (fun_app$ llength$ ?v1)) (lappend$ (ldrop$ ?v0 ?v1) ?v2) (ldrop$ (fun_app$a (minus$ ?v0) (fun_app$ llength$ ?v1)) ?v2))) ))
(assert (forall ((?v0 A_llist$) (?v1 Nat$) (?v2 A_llist$)) (=> (fun_app$d (less_eq$ (fun_app$ llength$ ?v0)) (enat$ ?v1)) (= (ldropn$ ?v1 (lappend$ ?v0 ?v2)) (ldropn$ (fun_app$b (minus$a ?v1) (the_enat$ (fun_app$ llength$ ?v0))) ?v2))) ))
(assert (forall ((?v0 Nat$) (?v1 A_llist$) (?v2 Nat$)) (=> (fun_app$d (less_eq$ (enat$ ?v0)) (fun_app$ llength$ ?v1)) (fun_app$d (less_eq$ (enat$ (fun_app$b (minus$a ?v0) ?v2))) (fun_app$ llength$ (ldropn$ ?v2 ?v1)))) ))
(assert (forall ((?v0 Enat$)) (= (fun_app$d (less_eq$ ?v0) zero$) (= ?v0 zero$)) ))
(assert (forall ((?v0 Enat$)) (! (= (fun_app$d (less_eq$ infinity$) ?v0) (= ?v0 infinity$)) :pattern ((fun_app$d (less_eq$ infinity$) ?v0)))))
(assert (forall ((?v0 Enat$)) (! (= (fun_app$d (less_eq$ ?v0) infinity$) true) :pattern ((less_eq$ ?v0)))))
(assert (forall ((?v0 Nat$)) (exists ((?v1 Nat$)) (forall ((?v2 Nat$)) (=> (fun_app$e (less$a ?v1) ?v2) (= (fun_app$e (less_eq$a ?v2) ?v0) false)) ) ) ))
(assert (forall ((?v0 Enat$)) (exists ((?v1 Enat$)) (forall ((?v2 Enat$)) (=> (fun_app$d (less$ ?v1) ?v2) (= (fun_app$d (less_eq$ ?v2) ?v0) false)) ) ) ))
(assert (forall ((?v0 Nat$)) (exists ((?v1 Nat$)) (forall ((?v2 Nat$)) (=> (fun_app$e (less$a ?v1) ?v2) (= (fun_app$e (less_eq$a ?v0) ?v2) true)) ) ) ))
(assert (forall ((?v0 Enat$)) (exists ((?v1 Enat$)) (forall ((?v2 Enat$)) (=> (fun_app$d (less$ ?v1) ?v2) (= (fun_app$d (less_eq$ ?v0) ?v2) true)) ) ) ))
(assert (forall ((?v0 Nat$)) (exists ((?v1 Nat$)) (forall ((?v2 Nat$)) (=> (fun_app$e (less$a ?v2) ?v1) (= (fun_app$e (less_eq$a ?v2) ?v0) true)) ) ) ))
(assert (forall ((?v0 Enat$)) (exists ((?v1 Enat$)) (forall ((?v2 Enat$)) (=> (fun_app$d (less$ ?v2) ?v1) (= (fun_app$d (less_eq$ ?v2) ?v0) true)) ) ) ))
(assert (forall ((?v0 Nat$)) (exists ((?v1 Nat$)) (forall ((?v2 Nat$)) (=> (fun_app$e (less$a ?v2) ?v1) (= (fun_app$e (less_eq$a ?v0) ?v2) false)) ) ) ))
(assert (forall ((?v0 Enat$)) (exists ((?v1 Enat$)) (forall ((?v2 Enat$)) (=> (fun_app$d (less$ ?v2) ?v1) (= (fun_app$d (less_eq$ ?v0) ?v2) false)) ) ) ))
(assert (fun_app$e (less_eq$a zero$a) zero$a))
(assert (forall ((?v0 Enat$)) (fun_app$d (less_eq$ zero$) ?v0) ))
(assert (forall ((?v0 Enat$) (?v1 Nat$)) (=> (fun_app$d (less_eq$ ?v0) (enat$ ?v1)) (exists ((?v2 Nat$)) (= ?v0 (enat$ ?v2)) )) ))
(assert (forall ((?v0 Enat$)) (fun_app$d (less_eq$ ?v0) infinity$) ))
(assert (forall ((?v0 Enat$) (?v1 Enat$) (?v2 Enat$)) (=> (and (fun_app$d (less_eq$ ?v0) ?v1) (fun_app$d (less_eq$ ?v0) ?v2)) (= (= (fun_app$a (minus$ ?v1) ?v0) (fun_app$a (minus$ ?v2) ?v0)) (= ?v1 ?v2))) ))
(assert (forall ((?v0 Enat$) (?v1 Enat$) (?v2 Enat$)) (=> (fun_app$d (less_eq$ ?v0) ?v1) (fun_app$d (less_eq$ (fun_app$a (minus$ ?v0) ?v2)) (fun_app$a (minus$ ?v1) ?v2))) ))
(assert (forall ((?v0 Nat_nat_bool_fun_fun$) (?v1 Nat$) (?v2 Nat$)) (=> (and (forall ((?v3 Nat$) (?v4 Nat$)) (=> (fun_app$e (less_eq$a ?v3) ?v4) (fun_app$e (fun_app$f ?v0 ?v3) ?v4)) ) (=> (fun_app$e (fun_app$f ?v0 ?v1) ?v2) (fun_app$e (fun_app$f ?v0 ?v2) ?v1))) (fun_app$e (fun_app$f ?v0 ?v2) ?v1)) ))
(assert (forall ((?v0 Enat_enat_bool_fun_fun$) (?v1 Enat$) (?v2 Enat$)) (=> (and (forall ((?v3 Enat$) (?v4 Enat$)) (=> (fun_app$d (less_eq$ ?v3) ?v4) (fun_app$d (fun_app$g ?v0 ?v3) ?v4)) ) (=> (fun_app$d (fun_app$g ?v0 ?v1) ?v2) (fun_app$d (fun_app$g ?v0 ?v2) ?v1))) (fun_app$d (fun_app$g ?v0 ?v2) ?v1)) ))
(assert (forall ((?v0 Nat$) (?v1 Nat$)) (=> (and (fun_app$e (less_eq$a zero$a) ?v0) (fun_app$e (less_eq$a zero$a) ?v1)) (fun_app$e (less_eq$a zero$a) (fun_app$b (times$a ?v0) ?v1))) ))
(assert (forall ((?v0 Nat$) (?v1 Nat$)) (=> (and (fun_app$e (less_eq$a zero$a) ?v0) (fun_app$e (less_eq$a ?v1) zero$a)) (fun_app$e (less_eq$a (fun_app$b (times$a ?v0) ?v1)) zero$a)) ))
(assert (forall ((?v0 Nat$) (?v1 Nat$)) (=> (and (fun_app$e (less_eq$a zero$a) ?v0) (fun_app$e (less_eq$a ?v1) zero$a)) (fun_app$e (less_eq$a (fun_app$b (times$a ?v1) ?v0)) zero$a)) ))
(assert (forall ((?v0 Nat$) (?v1 Nat$)) (=> (and (fun_app$e (less_eq$a ?v0) zero$a) (fun_app$e (less_eq$a zero$a) ?v1)) (fun_app$e (less_eq$a (fun_app$b (times$a ?v0) ?v1)) zero$a)) ))
(assert (forall ((?v0 Nat$) (?v1 Nat$) (?v2 Nat$)) (=> (and (fun_app$e (less_eq$a ?v0) ?v1) (fun_app$e (less_eq$a zero$a) ?v2)) (fun_app$e (less_eq$a (fun_app$b (times$a ?v2) ?v0)) (fun_app$b (times$a ?v2) ?v1))) ))
(assert (forall ((?v0 Enat$) (?v1 Enat$) (?v2 Enat$)) (=> (and (fun_app$d (less_eq$ ?v0) ?v1) (fun_app$d (less_eq$ zero$) ?v2)) (fun_app$d (less_eq$ (fun_app$a (times$ ?v2) ?v0)) (fun_app$a (times$ ?v2) ?v1))) ))
(assert (forall ((?v0 Nat$) (?v1 Nat$) (?v2 Nat$)) (=> (and (fun_app$e (less_eq$a ?v0) ?v1) (fun_app$e (less_eq$a zero$a) ?v2)) (fun_app$e (less_eq$a (fun_app$b (times$a ?v0) ?v2)) (fun_app$b (times$a ?v1) ?v2))) ))
(assert (forall ((?v0 Enat$) (?v1 Enat$) (?v2 Enat$)) (=> (and (fun_app$d (less_eq$ ?v0) ?v1) (fun_app$d (less_eq$ zero$) ?v2)) (fun_app$d (less_eq$ (fun_app$a (times$ ?v0) ?v2)) (fun_app$a (times$ ?v1) ?v2))) ))
(assert (forall ((?v0 Nat$) (?v1 Nat$) (?v2 Nat$)) (=> (and (fun_app$e (less_eq$a ?v0) ?v1) (fun_app$e (less_eq$a zero$a) ?v2)) (fun_app$e (less_eq$a (fun_app$b (times$a ?v2) ?v0)) (fun_app$b (times$a ?v2) ?v1))) ))
(assert (forall ((?v0 Enat$) (?v1 Enat$) (?v2 Enat$)) (=> (and (fun_app$d (less_eq$ ?v0) ?v1) (fun_app$d (less_eq$ zero$) ?v2)) (fun_app$d (less_eq$ (fun_app$a (times$ ?v2) ?v0)) (fun_app$a (times$ ?v2) ?v1))) ))
(assert (forall ((?v0 Nat$) (?v1 Nat$) (?v2 Nat$) (?v3 Nat$)) (=> (and (fun_app$e (less_eq$a ?v0) ?v1) (and (fun_app$e (less_eq$a ?v2) ?v3) (and (fun_app$e (less_eq$a zero$a) ?v1) (fun_app$e (less_eq$a zero$a) ?v2)))) (fun_app$e (less_eq$a (fun_app$b (times$a ?v0) ?v2)) (fun_app$b (times$a ?v1) ?v3))) ))
(assert (forall ((?v0 Enat$) (?v1 Enat$) (?v2 Enat$) (?v3 Enat$)) (=> (and (fun_app$d (less_eq$ ?v0) ?v1) (and (fun_app$d (less_eq$ ?v2) ?v3) (and (fun_app$d (less_eq$ zero$) ?v1) (fun_app$d (less_eq$ zero$) ?v2)))) (fun_app$d (less_eq$ (fun_app$a (times$ ?v0) ?v2)) (fun_app$a (times$ ?v1) ?v3))) ))
(assert (forall ((?v0 Nat$) (?v1 Nat$) (?v2 Nat$) (?v3 Nat$)) (=> (and (fun_app$e (less_eq$a ?v0) ?v1) (and (fun_app$e (less_eq$a ?v2) ?v3) (and (fun_app$e (less_eq$a zero$a) ?v0) (fun_app$e (less_eq$a zero$a) ?v2)))) (fun_app$e (less_eq$a (fun_app$b (times$a ?v0) ?v2)) (fun_app$b (times$a ?v1) ?v3))) ))
(assert (forall ((?v0 Enat$) (?v1 Enat$) (?v2 Enat$) (?v3 Enat$)) (=> (and (fun_app$d (less_eq$ ?v0) ?v1) (and (fun_app$d (less_eq$ ?v2) ?v3) (and (fun_app$d (less_eq$ zero$) ?v0) (fun_app$d (less_eq$ zero$) ?v2)))) (fun_app$d (less_eq$ (fun_app$a (times$ ?v0) ?v2)) (fun_app$a (times$ ?v1) ?v3))) ))
(assert (forall ((?v0 Nat$) (?v1 Nat$)) (=> (or (and (fun_app$e (less_eq$a zero$a) ?v0) (fun_app$e (less_eq$a ?v1) zero$a)) (and (fun_app$e (less_eq$a ?v0) zero$a) (fun_app$e (less_eq$a zero$a) ?v1))) (fun_app$e (less_eq$a (fun_app$b (times$a ?v0) ?v1)) zero$a)) ))
(assert (forall ((?v0 Nat$)) (! (= (fun_app$d (less_eq$ infinity$) (enat$ ?v0)) false) :pattern ((enat$ ?v0)))))
(assert (forall ((?v0 Nat$)) (=> (fun_app$d (less_eq$ infinity$) (enat$ ?v0)) false) ))
(assert (forall ((?v0 Enat$) (?v1 Enat$)) (=> (forall ((?v2 Nat$)) (=> (fun_app$d (less$ ?v0) (enat$ ?v2)) (fun_app$d (less$ ?v1) (enat$ ?v2))) ) (fun_app$d (less_eq$ ?v1) ?v0)) ))
(assert (forall ((?v0 Nat$) (?v1 Nat$) (?v2 Nat$) (?v3 Nat$)) (=> (and (fun_app$e (less_eq$a ?v0) ?v1) (and (fun_app$e (less$a ?v2) ?v3) (and (fun_app$e (less$a zero$a) ?v0) (fun_app$e (less_eq$a zero$a) ?v2)))) (fun_app$e (less$a (fun_app$b (times$a ?v0) ?v2)) (fun_app$b (times$a ?v1) ?v3))) ))
(assert (forall ((?v0 Nat$) (?v1 Nat$) (?v2 Nat$)) (=> (and (fun_app$e (less_eq$a (fun_app$b (times$a ?v0) ?v1)) (fun_app$b (times$a ?v0) ?v2)) (fun_app$e (less$a zero$a) ?v0)) (fun_app$e (less_eq$a ?v1) ?v2)) ))
(assert (forall ((?v0 Nat$) (?v1 Nat$) (?v2 Nat$)) (=> (and (fun_app$e (less_eq$a (fun_app$b (times$a ?v0) ?v1)) (fun_app$b (times$a ?v2) ?v1)) (fun_app$e (less$a zero$a) ?v1)) (fun_app$e (less_eq$a ?v0) ?v2)) ))
(check-sat)
(exit)

